p edge 60 504
e 1 5
e 1 8
e 1 15
e 1 17
e 1 18
e 1 24
e 1 25
e 1 26
e 1 27
e 1 31
e 1 32
e 1 33
e 1 34
e 1 36
e 1 37
e 1 40
e 1 47
e 1 49
e 1 57
e 1 59
e 2 5
e 2 6
e 2 15
e 2 19
e 2 20
e 2 25
e 2 26
e 2 31
e 2 39
e 2 42
e 2 47
e 2 52
e 2 53
e 2 55
e 3 6
e 3 7
e 3 11
e 3 17
e 3 20
e 3 30
e 3 33
e 3 34
e 3 37
e 3 41
e 3 43
e 3 45
e 3 46
e 3 49
e 3 50
e 3 53
e 3 56
e 4 12
e 4 17
e 4 18
e 4 20
e 4 24
e 4 28
e 4 29
e 4 33
e 4 34
e 4 37
e 4 40
e 4 47
e 4 51
e 4 52
e 4 54
e 4 55
e 4 57
e 5 8
e 5 12
e 5 15
e 5 17
e 5 18
e 5 19
e 5 22
e 5 32
e 5 36
e 5 37
e 5 39
e 5 43
e 5 44
e 5 49
e 5 53
e 5 56
e 5 58
e 6 19
e 6 24
e 6 35
e 6 37
e 6 38
e 6 40
e 6 44
e 6 45
e 6 47
e 6 52
e 6 55
e 6 57
e 6 60
e 7 8
e 7 9
e 7 29
e 7 33
e 7 34
e 7 36
e 7 39
e 7 40
e 7 42
e 7 43
e 7 49
e 7 52
e 7 55
e 7 57
e 7 58
e 7 59
e 8 9
e 8 15
e 8 22
e 8 25
e 8 26
e 8 30
e 8 35
e 8 38
e 8 39
e 8 42
e 8 46
e 8 49
e 8 55
e 8 58
e 9 14
e 9 15
e 9 19
e 9 21
e 9 27
e 9 32
e 9 35
e 9 37
e 9 38
e 9 41
e 9 42
e 9 44
e 9 45
e 9 47
e 9 52
e 9 55
e 9 57
e 9 60
e 10 12
e 10 22
e 10 26
e 10 30
e 10 35
e 10 38
e 10 39
e 10 47
e 10 54
e 10 55
e 11 12
e 11 14
e 11 15
e 11 18
e 11 21
e 11 22
e 11 24
e 11 25
e 11 26
e 11 30
e 11 31
e 11 32
e 11 33
e 11 35
e 11 37
e 11 40
e 11 41
e 11 42
e 11 48
e 11 51
e 11 60
e 12 16
e 12 21
e 12 24
e 12 25
e 12 33
e 12 37
e 12 38
e 12 40
e 12 43
e 12 45
e 12 46
e 12 47
e 12 49
e 12 51
e 12 53
e 12 59
e 12 60
e 13 17
e 13 24
e 13 29
e 13 38
e 13 39
e 13 40
e 13 47
e 13 50
e 13 52
e 13 54
e 13 57
e 13 58
e 14 19
e 14 23
e 14 24
e 14 25
e 14 26
e 14 28
e 14 29
e 14 33
e 14 36
e 14 37
e 14 47
e 14 57
e 14 59
e 14 60
e 15 19
e 15 20
e 15 23
e 15 25
e 15 27
e 15 28
e 15 30
e 15 33
e 15 34
e 15 35
e 15 39
e 15 42
e 15 43
e 15 46
e 15 47
e 15 52
e 15 55
e 15 56
e 15 60
e 16 20
e 16 21
e 16 30
e 16 35
e 16 37
e 16 51
e 16 57
e 17 21
e 17 25
e 17 26
e 17 30
e 17 31
e 17 51
e 17 53
e 17 56
e 17 57
e 17 59
e 18 23
e 18 24
e 18 25
e 18 30
e 18 31
e 18 34
e 18 36
e 18 41
e 18 45
e 18 48
e 18 49
e 18 53
e 18 58
e 18 60
e 19 26
e 19 31
e 19 36
e 19 38
e 19 41
e 19 43
e 19 47
e 19 53
e 19 54
e 19 55
e 20 28
e 20 31
e 20 32
e 20 35
e 20 37
e 20 40
e 20 45
e 20 47
e 20 51
e 20 52
e 20 53
e 20 57
e 20 58
e 21 22
e 21 30
e 21 31
e 21 33
e 21 39
e 21 40
e 21 42
e 21 45
e 21 47
e 21 51
e 21 53
e 21 57
e 22 24
e 22 28
e 22 32
e 22 38
e 22 49
e 22 52
e 22 53
e 22 58
e 22 60
e 23 30
e 23 41
e 23 44
e 23 45
e 23 46
e 23 49
e 23 51
e 23 52
e 23 56
e 23 57
e 23 60
e 24 26
e 24 37
e 24 42
e 24 48
e 24 53
e 25 30
e 25 35
e 25 37
e 25 41
e 25 48
e 25 50
e 25 51
e 25 53
e 25 55
e 25 56
e 25 60
e 26 29
e 26 30
e 26 34
e 26 36
e 26 40
e 26 44
e 26 49
e 26 51
e 26 54
e 27 29
e 27 33
e 27 35
e 27 43
e 27 44
e 27 53
e 28 35
e 28 38
e 28 39
e 28 46
e 28 49
e 28 52
e 28 57
e 28 59
e 28 60
e 29 34
e 29 36
e 29 38
e 29 39
e 29 42
e 29 44
e 29 46
e 29 51
e 29 53
e 29 57
e 30 32
e 30 33
e 30 35
e 30 38
e 30 43
e 30 45
e 30 47
e 30 59
e 31 32
e 31 35
e 31 43
e 31 48
e 31 51
e 31 52
e 31 53
e 31 54
e 31 59
e 32 38
e 32 40
e 32 43
e 32 45
e 32 51
e 32 53
e 32 54
e 32 56
e 32 57
e 32 60
e 33 38
e 33 42
e 33 43
e 33 46
e 33 49
e 33 50
e 33 51
e 33 59
e 34 38
e 34 45
e 34 48
e 34 49
e 34 50
e 34 53
e 34 54
e 34 55
e 35 39
e 35 40
e 35 41
e 35 48
e 35 50
e 35 52
e 35 59
e 36 41
e 36 45
e 36 52
e 36 53
e 36 54
e 36 56
e 37 38
e 37 39
e 37 40
e 37 42
e 37 43
e 37 45
e 37 51
e 37 54
e 37 59
e 38 53
e 38 54
e 39 42
e 39 45
e 39 52
e 40 42
e 40 44
e 40 48
e 40 49
e 40 50
e 40 51
e 40 53
e 40 57
e 41 43
e 41 46
e 41 49
e 41 54
e 41 55
e 41 56
e 41 59
e 42 46
e 42 47
e 42 49
e 42 50
e 42 51
e 42 52
e 42 55
e 42 57
e 43 45
e 43 48
e 43 53
e 43 59
e 43 60
e 44 49
e 44 50
e 44 53
e 44 54
e 45 47
e 46 52
e 46 54
e 46 59
e 47 51
e 47 52
e 47 58
e 48 49
e 48 55
e 48 56
e 48 59
e 49 59
e 50 53
e 50 56
e 50 59
e 51 59
e 51 60
e 52 54
e 52 55
e 53 54
e 53 55
e 53 58
e 54 57
e 55 56
e 55 58
e 58 59
e 58 60
